PROBLEM NAME: 	a280-TTP
KNAPSACK DATA TYPE: bounded strongly corr
DIMENSION:	10
NUMBER OF ITEMS: 	6
CAPACITY OF KNAPSACK:   80
MIN SPEED: 	0.1
MAX SPEED: 	1
RENTING RATIO: 	.7
EDGE_WEIGHT_TYPE:	CEIL_2D
NODE_COORD_SECTION	(INDEX, X, Y): 
1	 288 149
2	 288 129
3	 270 133
4	 256 141
5	 256 157
6	 246 157
7	 236 169
8	 228 169
9	 228 161
10	 220 169
ITEMS SECTION	(INDEX, PROFIT, WEIGHT, ASSIGNED NODE NUMBER): 
1	20	11	2
2	12	63	3
3	16	61	6
4	62	32	5
5	140	17	4
6	12	2	7
